n=214;
k_min=7;
k_max=7;
M=[| 166, 140, 153, 124, 144, 124, 145
 | 166, 136, 154, 117, 149, 123, 151
 | 163, 138, 154, 118, 149, 123, 151
 | 164, 140, 154, 120, 147, 124, 148
 | 163, 140, 153, 119, 147, 123, 150
 | 165, 141, 152, 120, 147, 124, 149
 | 164, 140, 154, 120, 147, 123, 150
 | 163, 141, 153, 120, 146, 122, 150
 | 166, 138, 155, 119, 146, 124, 148
 | 166, 141, 154, 120, 145, 122, 149
 | 164, 141, 152, 120, 147, 123, 149
 | 164, 143, 153, 122, 145, 122, 148
 | 164, 140, 152, 119, 147, 123, 150
 | 164, 142, 153, 121, 145, 122, 149
 | 163, 143, 152, 122, 145, 122, 148
 | 164, 142, 153, 121, 145, 122, 149
 | 163, 144, 153, 123, 144, 122, 148
 | 166, 141, 155, 124, 142, 124, 144
 | 166, 140, 156, 123, 143, 122, 147
 | 164, 141, 154, 120, 145, 123, 148
 | 164, 142, 154, 121, 145, 123, 147
 | 166, 142, 154, 124, 142, 122, 146
 | 164, 143, 154, 123, 144, 123, 147
 | 164, 143, 153, 122, 144, 122, 148
 | 164, 140, 155, 120, 145, 122, 149
 | 165, 142, 154, 121, 145, 122, 148
 | 164, 141, 155, 120, 145, 123, 148
 | 165, 142, 154, 121, 145, 122, 149
 | 163, 143, 153, 122, 144, 122, 148
 | 165, 141, 154, 121, 145, 122, 148
 | 163, 144, 153, 123, 144, 122, 148
 | 164, 143, 153, 122, 144, 122, 149
 | 164, 142, 154, 122, 144, 122, 148
 | 163, 144, 153, 123, 144, 122, 149
 | 163, 144, 154, 123, 143, 122, 147
 | 164, 141, 155, 121, 145, 122, 149
 | 166, 140, 157, 121, 144, 124, 146
 | 164, 143, 154, 122, 144, 122, 148
 | 166, 143, 156, 126, 140, 122, 144
 | 166, 143, 156, 126, 140, 122, 144
 | 163, 144, 154, 123, 143, 122, 148
 | 163, 144, 153, 123, 144, 122, 148
 | 164, 141, 155, 121, 144, 122, 149
 | 166, 142, 157, 127, 139, 122, 143
 | 164, 144, 154, 123, 143, 122, 147
 | 163, 141, 157, 123, 142, 124, 145
 | 164, 142, 156, 122, 143, 122, 148
 | 164, 143, 157, 128, 139, 122, 143
 | 164, 145, 156, 130, 138, 121, 143
 | 163, 141, 158, 122, 143, 124, 146
 | 164, 144, 157, 130, 138, 122, 143
 | 162, 143, 158, 124, 142, 123, 146
 | 162, 143, 158, 122, 141, 121, 149
 | 163, 144, 158, 123, 140, 121, 148
 | 163, 144, 158, 122, 141, 120, 149
 | 166, 147, 153, 124, 139, 119, 148
 | 164, 141, 154, 121, 146, 123, 149
 | 165, 142, 154, 121, 145, 122, 148
 | 163, 139, 153, 119, 148, 124, 150
 | 164, 140, 154, 120, 146, 123, 149
 | 166, 141, 156, 122, 143, 120, 148
 | 166, 139, 155, 122, 145, 123, 146
 | 164, 143, 157, 127, 140, 123, 144
 | 163, 143, 156, 128, 139, 123, 143
 | 164, 143, 157, 127, 139, 122, 144
 | 163, 142, 158, 126, 140, 122, 145
 | 166, 145, 156, 128, 137, 120, 143
 | 166, 146, 156, 128, 138, 120, 143
 | 165, 145, 157, 128, 138, 120, 143
 | 163, 146, 157, 130, 137, 121, 142
 | 166, 137, 152, 117, 149, 127, 149
 | 166, 139, 154, 120, 146, 125, 146
 | 163, 139, 152, 119, 149, 124, 150
 | 164, 138, 153, 118, 149, 124, 150
 | 163, 139, 152, 119, 149, 124, 150
 | 164, 140, 152, 119, 148, 124, 150
 | 165, 138, 154, 118, 148, 125, 148
 | 164, 140, 153, 119, 148, 124, 149
 | 164, 137, 155, 118, 148, 123, 151
 | 164, 140, 152, 119, 148, 125, 148
 | 164, 140, 152, 119, 148, 126, 148
 | 163, 139, 153, 118, 149, 124, 151
 | 164, 139, 154, 119, 148, 124, 150
 | 164, 140, 153, 119, 148, 124, 149
 | 166, 134, 151, 113, 153, 130, 149
 | 164, 139, 155, 119, 147, 123, 149
 | 163, 140, 154, 119, 147, 122, 151
 | 165, 139, 154, 118, 148, 124, 149
 | 164, 140, 153, 119, 147, 123, 149
 | 163, 142, 152, 120, 147, 124, 149
 | 162, 143, 155, 124, 143, 124, 145
 | 164, 141, 154, 120, 146, 122, 149
 | 162, 142, 155, 121, 145, 121, 151
 | 163, 140, 155, 119, 146, 122, 151
 | 164, 142, 153, 120, 146, 123, 150
 | 164, 141, 156, 121, 145, 124, 147
 | 162, 144, 156, 125, 142, 123, 145
 | 166, 146, 151, 124, 141, 121, 147
 | 161, 144, 154, 121, 144, 123, 149
 | 164, 143, 156, 121, 142, 121, 148
 | 163, 144, 155, 122, 142, 121, 149
 | 166, 147, 155, 124, 138, 120, 145
 | 166, 148, 153, 127, 137, 117, 148
 | 166, 147, 153, 136, 131, 122, 141
 | 166, 147, 158, 131, 132, 120, 143
 | 144, 155, 147, 155, 125, 126, 143
 | 145, 149, 146, 148, 132, 133, 143
 | 148, 151, 143, 155, 128, 130, 141
 | 147, 166, 149, 139, 125, 119, 151
 | 149, 156, 149, 141, 130, 122, 150
 | 144, 152, 144, 165, 126, 125, 141
 | 144, 152, 143, 166, 126, 125, 141
 | 147, 156, 144, 158, 125, 124, 142
 | 166, 139, 154, 119, 147, 124, 148
 | 166, 141, 153, 121, 146, 124, 146
 | 166, 139, 154, 120, 146, 124, 147
 | 166, 140, 153, 120, 146, 124, 147
 | 166, 137, 153, 118, 149, 126, 147
 | 166, 139, 153, 118, 148, 124, 148
 | 164, 138, 154, 118, 148, 125, 149
 | 166, 140, 154, 120, 146, 123, 147
 | 164, 140, 153, 119, 148, 124, 149
 | 164, 139, 154, 119, 147, 123, 150
 | 165, 138, 154, 118, 148, 125, 149
 | 165, 141, 154, 121, 145, 122, 148
 | 166, 141, 154, 121, 145, 123, 146
 | 164, 142, 154, 122, 144, 123, 147
 | 157, 147, 166, 125, 135, 120, 147
 | 156, 146, 162, 125, 137, 122, 149
 | 155, 153, 158, 130, 129, 120, 151
 | 153, 157, 155, 136, 127, 119, 150
 | 149, 159, 146, 149, 125, 124, 145
 | 165, 139, 153, 120, 147, 124, 148
 | 164, 138, 154, 121, 147, 126, 146
 | 164, 139, 153, 120, 147, 123, 149
 | 165, 140, 153, 121, 146, 124, 147
 | 164, 141, 153, 121, 146, 123, 149
 | 164, 140, 153, 120, 147, 124, 149
 | 163, 140, 152, 119, 148, 124, 150
 | 164, 140, 152, 119, 148, 124, 150
 | 166, 139, 154, 118, 147, 124, 148
 | 166, 140, 154, 120, 145, 122, 148
 | 166, 141, 153, 119, 146, 123, 149
 | 166, 140, 153, 119, 147, 124, 148
 | 166, 143, 155, 121, 142, 120, 148
 | 164, 143, 154, 123, 144, 123, 146
 | 165, 140, 156, 121, 144, 121, 149
 | 164, 140, 155, 120, 146, 123, 149
 | 164, 141, 155, 120, 145, 123, 148
 | 162, 145, 152, 124, 144, 124, 146
 | 164, 141, 155, 120, 146, 124, 148
 | 164, 142, 156, 126, 140, 123, 144
 | 163, 142, 156, 124, 142, 120, 149
 | 164, 140, 155, 120, 146, 123, 149
 | 164, 143, 154, 123, 143, 123, 146
 | 164, 142, 155, 121, 144, 121, 149
 | 163, 141, 156, 121, 144, 122, 149
 | 165, 143, 156, 127, 139, 122, 144
 | 163, 141, 157, 122, 144, 124, 146
 | 163, 141, 157, 122, 143, 125, 146
 | 162, 142, 158, 123, 142, 124, 146
 | 163, 141, 156, 123, 143, 121, 148
 | 166, 141, 156, 124, 141, 124, 144
 | 151, 135, 145, 122, 152, 143, 149
 | 158, 150, 160, 129, 132, 120, 148
 | 152, 161, 152, 142, 127, 119, 142
 | 150, 166, 149, 145, 127, 119, 141
 | 147, 156, 150, 145, 127, 122, 149
 | 149, 151, 152, 135, 132, 126, 152
 | 146, 159, 151, 141, 126, 122, 152
 | 147, 166, 148, 145, 123, 120, 148
 | 142, 136, 142, 126, 142, 166, 143
 | 142, 136, 142, 126, 143, 165, 143
 | 147, 164, 148, 147, 123, 121, 147
 | 155, 146, 166, 125, 133, 122, 149
 | 148, 157, 152, 142, 127, 120, 151
 | 156, 147, 163, 125, 137, 119, 149
 | 157, 148, 162, 128, 136, 119, 148
 | 156, 146, 163, 123, 138, 120, 150
 | 155, 146, 166, 123, 137, 119, 150
 | 151, 140, 152, 120, 145, 123, 166
 | 149, 154, 156, 128, 132, 121, 157
 | 146, 159, 151, 135, 128, 121, 156
 | 146, 161, 149, 139, 129, 121, 151
 | 146, 144, 147, 129, 145, 133, 153
 | 155, 132, 144, 115, 166, 136, 148
 | 156, 134, 146, 118, 158, 138, 148
 | 162, 141, 157, 122, 143, 123, 147
 | 155, 146, 155, 127, 137, 130, 147
 | 152, 145, 151, 126, 143, 132, 148
 | 154, 144, 159, 122, 142, 121, 154
 | 144, 148, 151, 125, 138, 125, 165
 | 146, 148, 151, 127, 136, 125, 163
 | 145, 147, 150, 125, 140, 127, 163
 | 145, 147, 150, 125, 140, 126, 165
 | 146, 148, 151, 126, 136, 125, 164
 | 146, 150, 152, 128, 134, 124, 162
 | 144, 149, 152, 125, 136, 124, 166
 | 145, 149, 151, 125, 136, 125, 166
 | 145, 149, 152, 125, 137, 126, 164
 | 146, 147, 151, 124, 140, 127, 162
 | 149, 146, 147, 134, 139, 136, 146
 | 145, 147, 151, 125, 140, 127, 162
 | 145, 146, 150, 124, 141, 127, 163
 | 145, 148, 151, 125, 138, 126, 164
 | 145, 148, 151, 125, 140, 127, 162
 | 144, 148, 151, 125, 139, 126, 162
 | 146, 138, 143, 120, 148, 136, 166
 | 145, 150, 151, 127, 134, 124, 166
 | 145, 148, 152, 127, 136, 126, 162
 | 145, 147, 150, 124, 140, 127, 163
 | 145, 146, 150, 124, 140, 126, 166
 | 145, 146, 150, 125, 140, 125, 165
 | 145, 146, 150, 125, 139, 126, 165 |];
 P=[1, 1, 1, 1, 1, 1, 1, 1, 1, 1, 1, 1, 1, 1, 1, 1, 1, 1, 1, 1, 1, 1, 1, 1, 1, 1, 1, 1, 1, 1, 1, 1, 1, 1, 1, 1, 1, 1, 1, 1, 1, 1, 1, 1, 1, 1, 1, 1, 1, 1, 1, 1, 1, 1, 1, 1, 1, 1, 1, 1, 1, 1, 1, 1, 1, 1, 1, 1, 1, 1, 1, 1, 1, 1, 1, 1, 1, 1, 1, 1, 1, 1, 1, 1, 1, 1, 1, 1, 1, 1, 1, 1, 1, 1, 1, 1, 1, 1, 1, 1, 1, 1, 1, 1, 1, 4, 4, 4, 2, 2, 4, 4, 4, 1, 1, 1, 1, 1, 1, 1, 1, 1, 1, 1, 1, 1, 1, 3, 3, 3, 2, 4, 1, 1, 1, 1, 1, 1, 1, 1, 1, 1, 1, 1, 1, 1, 1, 1, 1, 1, 1, 1, 1, 1, 1, 1, 1, 1, 1, 1, 1, 1, 1, 5, 3, 2, 2, 2, 2, 2, 2, 6, 6, 2, 3, 2, 3, 3, 3, 3, 7, 3, 2, 2, 7, 5, 5, 1, 3, 3, 3, 7, 7, 7, 7, 7, 7, 7, 7, 7, 7, 2, 7, 7, 7, 7, 7, 7, 7, 7, 7, 7, 7, 7 ];